NAME: concorde91
TYPE: TSP
DIMENSION: 25 
EDGE_WEIGHT_TYPE: EUC_2D
NODE_COORD_SECTION
1 31 88
2 98 86
3 59 85
4 74 32
5 67 55
6 73 74
7 11 81
8 22 20
9 62 88
10 96 40
11 82 99
12 2 56
13 68 91
14 83 72
15 81 23
16 85 0
17 18 48
18 9 88
19 45 26
20 60 67
21 87 88
22 85 92
23 70 39
24 65 87
25 66 51
